experiments/knapsack_bounded/knapsack_bounded_5_2.mps
NAME
ROWS
 N  OBJ
 L  c1
 L  c2
 L  c3
 L  c4
 L  c5
 L  c6
COLUMNS
    MARKER    'MARKER'                 'INTORG'
    x[1]      c1        18
    x[1]      c2        1
    x[1]      OBJ       -650
    x[2]      c1        853
    x[2]      c3        1
    x[2]      OBJ       -845
    x[3]      c1        568
    x[3]      c4        1
    x[3]      OBJ       -598
    x[4]      c1        108
    x[4]      c5        1
    x[4]      OBJ       -374
    x[5]      c1        507
    x[5]      c6        1
    x[5]      OBJ       -543
    MARKER    'MARKER'                 'INTEND'
RHS
    rhs       c1        1027
    rhs       c2        3
    rhs       c3        2
    rhs       c4        8
    rhs       c5        5
    rhs       c6        7
RANGES
BOUNDS
 LO bounds    x[1]      0
 PL bounds    x[1]
 LO bounds    x[2]      0
 PL bounds    x[2]
 LO bounds    x[3]      0
 PL bounds    x[3]
 LO bounds    x[4]      0
 PL bounds    x[4]
 LO bounds    x[5]      0
 PL bounds    x[5]
ENDATA
