experiments/knapsack_bounded/knapsack_bounded_5_2.mps.log
Algorithm statistics:
zero_reductions => 24
max_basis_size => 30
queued_pairs => 0
built_pairs => 90
reduced_pairs => 49
eliminated_by_truncation => 0
removed_by_autoreduction => 0
eliminated_by_gcd => 345
time => 0.005176135
memory => 0.0012546852231025696
4ti2 results
4ti2 time => 0.01405989
